
Log started (V11.0.0) Sun Apr 13 13:38:58 2008

Tried aggregator 1 time.
Reduced MIP has 220 rows, 4001 columns, and 8020 nonzeros.
Presolve time =    0.03 sec.
Clique table members: 200.
MIP emphasis: balance optimality and feasibility.
MIP search method: dynamic search.
Parallel mode: none, using 1 thread.
Root relaxation solution time =    0.08 sec.

        Nodes                                         Cuts/
   Node  Left     Objective  IInf  Best Integer     Best Node    ItCnt     Gap

*     0+    0                        10256.0000       52.9526      501   99.48%
*     0+    0                           62.0000       52.9526      501   14.59%
      0     0       53.0147    43       62.0000      Fract: 8      512   14.49%
*     0+    0                           57.0000       53.0147      512    6.99%
      0     0       53.1324    54       57.0000    MIRcuts: 6      526    6.79%
      0     0       53.1637    62       57.0000    MIRcuts: 5      542    6.73%
*     0+    0                           56.0000       53.1637      542    5.06%
      0     0       53.1935    69       56.0000    MIRcuts: 6      560    5.01%
      0     0       53.2472    70       56.0000       Cuts: 5      578    4.92%
      0     0       53.2551    76       56.0000    MIRcuts: 5      595    4.90%
      0     0       53.2604    75       56.0000    MIRcuts: 2      607    4.89%
      0     0       53.2611    82       56.0000    MIRcuts: 1      611    4.89%

Repeating presolve.
Tried aggregator 1 time.
MIP Presolve eliminated 0 rows and 2258 columns.
Reduced MIP has 220 rows, 1743 columns, and 3504 nonzeros.
Tried aggregator 1 time.
Represolve time =    0.08 sec.
Clique table members: 452.
MIP emphasis: balance optimality and feasibility.
MIP search method: dynamic search.
Parallel mode: none, using 1 thread.
Root relaxation solution time =    0.05 sec.

        Nodes                                         Cuts/
   Node  Left     Objective  IInf  Best Integer     Best Node    ItCnt     Gap

      0     0       54.0000    43       56.0000       54.0000      341    3.57%
      0     2       54.0000    43       56.0000       54.0000      341    3.57%
    100    75    infeasible             56.0000       54.0000     5140    3.57%
    200   135       54.0000    64       56.0000       54.0000    11209    3.57%
    300   213       54.0000    74       56.0000       54.0000    17675    3.57%
    400   293    infeasible             56.0000       54.0000    23350    3.57%
    500   373       55.0000    44       56.0000       54.0000    29660    3.57%
    600   376       55.0000    33       56.0000       54.0000    36890    3.57%
    700   364       55.0000    51       56.0000       54.0000    42791    3.57%
    800   378       55.0000    43       56.0000       54.0000    46180    3.57%
    900   354       55.0000    39       56.0000       54.0000    52035    3.57%
   1000   344       55.0000   113       56.0000       54.0000    58051    3.57%
Elapsed time =  15.36 sec. (tree size =  1.44 MB, solutions = 4)
   1100   400       55.0000    38       56.0000       54.0000    63514    3.57%
*  1194+   63                           55.0000       54.0000    70367    1.82%
   1200    68       54.0000    70       55.0000       54.0000    70896    1.82%
   1300   138       54.0000    84       55.0000       54.0000    80735    1.82%
   1400   192       54.0000    92       55.0000       54.0000    96643    1.82%
   1500   234       54.0000    88       55.0000       54.0000   122345    1.82%
   1600   232    infeasible             55.0000       54.0000   163058    1.82%
   1700   296       54.0000   114       55.0000       54.0000   179003    1.82%
   1800   338       54.0000   100       55.0000       54.0000   206367    1.82%
   1900   362       54.0000   144       55.0000       54.0000   234396    1.82%
   2000   372       54.0000   114       55.0000       54.0000   265912    1.82%
Elapsed time =  71.16 sec. (tree size =  3.67 MB, solutions = 5)
   2100   428       54.0000   139       55.0000       54.0000   282665    1.82%
   2200   456    infeasible             55.0000       54.0000   309544    1.82%
   2300   442    infeasible             55.0000       54.0000   355843    1.82%
   2400   422       54.0000   111       55.0000       54.0000   402378    1.82%
   2500   456    infeasible             55.0000       54.0000   426305    1.82%
   2600   438    infeasible             55.0000       54.0000   470501    1.82%
   2700   436    infeasible             55.0000       54.0000   510894    1.82%
   2800   432    infeasible             55.0000       54.0000   544134    1.82%
   2900   438    infeasible             55.0000       54.0000   576225    1.82%
   3000   470       54.0000   138       55.0000       54.0000   594594    1.82%
Elapsed time = 196.56 sec. (tree size =  6.05 MB, solutions = 5)
   3100   448    infeasible             55.0000       54.0000   635060    1.82%
   3200   452       54.0000   137       55.0000       54.0000   675433    1.82%
   3300   408    infeasible             55.0000       54.0000   728740    1.82%
   3400   390    infeasible             55.0000       54.0000   774736    1.82%
   3500   386    infeasible             55.0000       54.0000   811838    1.82%
   3600   362       54.0000   137       55.0000       54.0000   854014    1.82%
   3700   330       54.0000   158       55.0000       54.0000   897807    1.82%
   3800   314    infeasible             55.0000       54.0000   932358    1.82%
   3900   280    infeasible             55.0000       54.0000   984832    1.82%
   4000   264    infeasible             55.0000       54.0000  1022363    1.82%
Elapsed time = 379.48 sec. (tree size =  3.94 MB, solutions = 5)
   4100   224       54.0000   137       55.0000       54.0000  1062748    1.82%
   4200   202    infeasible             55.0000       54.0000  1101897    1.82%
   4300   174       54.0000   157       55.0000       54.0000  1137441    1.82%
   4400   140       54.0000   144       55.0000       54.0000  1175879    1.82%
   4500    76    infeasible             55.0000       54.0000  1229876    1.82%
   4600    54       54.0000   162       55.0000       54.0000  1266344    1.82%
   4700    20    infeasible             55.0000       54.0000  1306202    1.82%

Cover cuts applied:  1074
Mixed integer rounding cuts applied:  19
Zero-half cuts applied:  1
Gomory fractional cuts applied:  6

Solution pool: 5 solutions saved.

MIP - Integer optimal solution:  Objective = 5.5000000000e+001
Solution time =  505.44 sec.  Iterations = 1320060  Nodes = 4727


Incumbent solution
Variable Name           Solution Value
Cmax                         55.000000
X_1_7                         1.000000
X_2_6                         1.000000
X_3_13                        1.000000
X_4_20                        1.000000
X_5_11                        1.000000
X_6_5                         1.000000
X_7_5                         1.000000
X_8_16                        1.000000
X_9_13                        1.000000
X_10_10                       1.000000
X_11_10                       1.000000
X_12_9                        1.000000
X_13_20                       1.000000
X_14_4                        1.000000
X_15_1                        1.000000
X_16_6                        1.000000
X_17_2                        1.000000
X_18_15                       1.000000
X_19_12                       1.000000
X_20_18                       1.000000
X_21_8                        1.000000
X_22_7                        1.000000
X_23_2                        1.000000
X_24_7                        1.000000
X_25_8                        1.000000
X_26_4                        1.000000
X_27_19                       1.000000
X_28_3                        1.000000
X_29_1                        1.000000
X_30_16                       1.000000
X_31_14                       1.000000
X_32_10                       1.000000
X_33_20                       1.000000
X_34_2                        1.000000
X_35_15                       1.000000
X_36_20                       1.000000
X_37_19                       1.000000
X_38_5                        1.000000
X_39_19                       1.000000
X_40_18                       1.000000
X_41_13                       1.000000
X_42_19                       1.000000
X_43_15                       1.000000
X_44_3                        1.000000
X_45_12                       1.000000
X_46_4                        1.000000
X_47_7                        1.000000
X_48_20                       1.000000
X_49_9                        1.000000
X_50_15                       1.000000
X_51_1                        1.000000
X_52_11                       1.000000
X_53_8                        1.000000
X_54_9                        1.000000
X_55_3                        1.000000
X_56_4                        1.000000
X_57_20                       1.000000
X_58_16                       1.000000
X_59_2                        1.000000
X_60_14                       1.000000
X_61_17                       1.000000
X_62_10                       1.000000
X_63_14                       1.000000
X_64_5                        1.000000
X_65_8                        1.000000
X_66_8                        1.000000
X_67_15                       1.000000
X_68_19                       1.000000
X_69_12                       1.000000
X_70_7                        1.000000
X_71_1                        1.000000
X_72_16                       1.000000
X_73_1                        1.000000
X_74_11                       1.000000
X_75_2                        1.000000
X_76_6                        1.000000
X_77_19                       1.000000
X_78_3                        1.000000
X_79_13                       1.000000
X_80_20                       1.000000
X_81_14                       1.000000
X_82_18                       1.000000
X_83_3                        1.000000
X_84_1                        1.000000
X_85_10                       1.000000
X_86_1                        1.000000
X_87_17                       1.000000
X_88_14                       1.000000
X_89_16                       1.000000
X_90_16                       1.000000
X_91_12                       1.000000
X_92_14                       1.000000
X_93_4                        1.000000
X_94_13                       1.000000
X_95_1                        1.000000
X_96_5                        1.000000
X_97_1                        1.000000
X_98_9                        1.000000
X_99_20                       1.000000
X_100_1                       1.000000
X_101_13                      1.000000
X_102_14                      1.000000
X_103_6                       1.000000
X_104_2                       1.000000
X_105_18                      1.000000
X_106_7                       1.000000
X_107_1                       1.000000
X_108_2                       1.000000
X_109_2                       1.000000
X_110_8                       1.000000
X_111_17                      1.000000
X_112_17                      1.000000
X_113_14                      1.000000
X_114_6                       1.000000
X_115_11                      1.000000
X_116_10                      1.000000
X_117_4                       1.000000
X_118_15                      1.000000
X_119_16                      1.000000
X_120_19                      1.000000
X_121_10                      1.000000
X_122_13                      1.000000
X_123_17                      1.000000
X_124_15                      1.000000
X_125_11                      1.000000
X_126_4                       1.000000
X_127_17                      1.000000
X_128_19                      1.000000
X_129_19                      1.000000
X_130_15                      1.000000
X_131_11                      1.000000
X_132_5                       1.000000
X_133_7                       1.000000
X_134_20                      1.000000
X_135_6                       1.000000
X_136_14                      1.000000
X_137_1                       1.000000
X_138_6                       1.000000
X_139_6                       1.000000
X_140_9                       1.000000
X_141_20                      1.000000
X_142_16                      1.000000
X_143_19                      1.000000
X_144_2                       1.000000
X_145_11                      1.000000
X_146_2                       1.000000
X_147_9                       1.000000
X_148_5                       1.000000
X_149_17                      1.000000
X_150_16                      1.000000
X_151_4                       1.000000
X_152_15                      1.000000
X_153_12                      1.000000
X_154_17                      1.000000
X_155_7                       1.000000
X_156_6                       1.000000
X_157_17                      1.000000
X_158_9                       1.000000
X_159_12                      1.000000
X_160_11                      1.000000
X_161_9                       1.000000
X_162_4                       1.000000
X_163_9                       1.000000
X_164_16                      1.000000
X_165_3                       1.000000
X_166_18                      1.000000
X_167_13                      1.000000
X_168_12                      1.000000
X_169_10                      1.000000
X_170_3                       1.000000
X_171_18                      1.000000
X_172_8                       1.000000
X_173_5                       1.000000
X_174_6                       1.000000
X_175_10                      1.000000
X_176_5                       1.000000
X_177_20                      1.000000
X_178_1                       1.000000
X_179_7                       1.000000
X_180_18                      1.000000
X_181_16                      1.000000
X_182_4                       1.000000
X_183_5                       1.000000
X_184_15                      1.000000
X_185_5                       1.000000
X_186_20                      1.000000
X_187_19                      1.000000
X_188_18                      1.000000
X_189_14                      1.000000
X_190_15                      1.000000
X_191_4                       1.000000
X_192_2                       1.000000
X_193_8                       1.000000
X_194_19                      1.000000
X_195_18                      1.000000
X_196_8                       1.000000
X_197_6                       1.000000
X_198_12                      1.000000
X_199_20                      1.000000
X_200_13                      1.000000
All other variables in the range 1-4001 are 0.
